p cnf 14 39

1 2 0
-1 -2 0
-1 3 0
-1 5 0
1 -3 -5 0
-2 4 0
-2 5 0
2 -4 -5 0
-3 12 14 0
3 -12 0
3 -14 0
-4 14 6 0
4 -14 0
4 -6 0
-6 -14 0
-6 -13 0
-6 12 0
6 13 14 -12 0
-5 7 8 9 10 0
5 -7 0
5 -8 0
5 -9 0
5 -10 0
-7 -14 0
-7 -13 0
-7 -12 0
7 14 13 12 0
-8 -14 0
-8 -13 0
-8 -11 0
8 14 13 11 0
-9 -14 0
-9 -12 0
-9 -11 0
9 14 12 11 0
-10 -13 0
-10 -12 0
-10 -11 0
10 13 12 11 0